#This is Python generated data file for Pyomo model
#_author_:W. Bukhsh
#Time stamp: 2023-07-06 09:42:42.856390
set B:=
0
1
2
3
4
5
6
7
8
9
10
11
12
13
14
;
set G:=
LV1.101_SGen_1
LV1.101_SGen_2
LV1.101_SGen_4
LV1.101_SGen_3
LV1.101_SGen_5
LV1.101_SGen_6
LV1.101_SGen_7
LV1.101_SGen_8
;
set D:=
LV1.101_Load_1
LV1.101_Load_2
LV1.101_Load_3
LV1.101_Load_4
LV1.101_Load_5
LV1.101_Load_6
LV1.101_Load_7
LV1.101_Load_8
LV1.101_Load_9
LV1.101_Load_10
LV1.101_Load_11
LV1.101_Load_12
LV1.101_Load_13
LV1.101_Load_14
;
set DNeg:=
;
param VOLL:=
LV1.101_Load_1 100000.0
LV1.101_Load_2 100000.0
LV1.101_Load_3 100000.0
LV1.101_Load_4 100000.0
LV1.101_Load_5 100000.0
LV1.101_Load_6 100000.0
LV1.101_Load_7 100000.0
LV1.101_Load_8 100000.0
LV1.101_Load_9 100000.0
LV1.101_Load_10 100000.0
LV1.101_Load_11 100000.0
LV1.101_Load_12 100000.0
LV1.101_Load_13 100000.0
LV1.101_Load_14 100000.0
;
param baseMVA:=
100
;
set LE:=
 1 
 2;
set L:=
LV1.101_Line_1
LV1.101_Line_2
LV1.101_Line_3
LV1.101_Line_4
LV1.101_Line_5
LV1.101_Line_6
LV1.101_Line_7
LV1.101_Line_8
LV1.101_Line_9
LV1.101_Line_10
LV1.101_Line_12
LV1.101_Line_13
LV1.101_Line_11
;
set TRANSF:= 
MV1.101-LV1.101-Trafo_1
;
set Gbs:=
7 LV1.101_SGen_1
11 LV1.101_SGen_2
8 LV1.101_SGen_4
13 LV1.101_SGen_3
3 LV1.101_SGen_5
1 LV1.101_SGen_6
2 LV1.101_SGen_7
5 LV1.101_SGen_8
;
set Dbs:=
10 LV1.101_Load_1
8 LV1.101_Load_2
14 LV1.101_Load_3
13 LV1.101_Load_4
9 LV1.101_Load_5
6 LV1.101_Load_6
3 LV1.101_Load_7
1 LV1.101_Load_8
7 LV1.101_Load_9
12 LV1.101_Load_10
11 LV1.101_Load_11
2 LV1.101_Load_12
5 LV1.101_Load_13
8 LV1.101_Load_14
;
set b0:=
;
param A:=
LV1.101_Line_1 1 10
LV1.101_Line_2 1 14
LV1.101_Line_3 1 7
LV1.101_Line_4 1 9
LV1.101_Line_5 1 8
LV1.101_Line_6 1 11
LV1.101_Line_7 1 4
LV1.101_Line_8 1 12
LV1.101_Line_9 1 6
LV1.101_Line_10 1 4
LV1.101_Line_12 1 2
LV1.101_Line_13 1 13
LV1.101_Line_11 1 5
LV1.101_Line_1 2 3
LV1.101_Line_2 2 12
LV1.101_Line_3 2 4
LV1.101_Line_4 2 2
LV1.101_Line_5 2 11
LV1.101_Line_6 2 10
LV1.101_Line_7 2 8
LV1.101_Line_8 2 7
LV1.101_Line_9 2 14
LV1.101_Line_10 2 1
LV1.101_Line_12 2 4
LV1.101_Line_13 2 9
LV1.101_Line_11 2 6
;
param AT:= 
MV1.101-LV1.101-Trafo_1 1 0
MV1.101-LV1.101-Trafo_1 2 4
;
param PGmin:=
LV1.101_SGen_1 0.0
LV1.101_SGen_2 0.0
LV1.101_SGen_4 0.0
LV1.101_SGen_3 0.0
LV1.101_SGen_5 0.0
LV1.101_SGen_6 0.0
LV1.101_SGen_7 0.0
LV1.101_SGen_8 0.0
;
param PGmax:=
LV1.101_SGen_1 0.4
LV1.101_SGen_2 0.7839999999999999
LV1.101_SGen_4 0.19
LV1.101_SGen_3 0.23
LV1.101_SGen_5 0.489
LV1.101_SGen_6 1.172
LV1.101_SGen_7 0.245
LV1.101_SGen_8 1.172
;
param SLmax:=
LV1.101_Line_1 99.99
LV1.101_Line_2 99.99
LV1.101_Line_3 99.99
LV1.101_Line_4 99.99
LV1.101_Line_5 99.99
LV1.101_Line_6 99.99
LV1.101_Line_7 99.99
LV1.101_Line_8 99.99
LV1.101_Line_9 99.99
LV1.101_Line_10 99.99
LV1.101_Line_12 99.99
LV1.101_Line_13 99.99
LV1.101_Line_11 99.99
;
param SLmaxT:=
MV1.101-LV1.101-Trafo_1 99.99
;
param c2:=
LV1.101_SGen_1 65.0
LV1.101_SGen_2 65.0
LV1.101_SGen_4 65.0
LV1.101_SGen_3 65.0
LV1.101_SGen_5 65.0
LV1.101_SGen_6 65.0
LV1.101_SGen_7 65.0
LV1.101_SGen_8 65.0
;
param c1:=
LV1.101_SGen_1 45.0
LV1.101_SGen_2 45.0
LV1.101_SGen_4 45.0
LV1.101_SGen_3 45.0
LV1.101_SGen_5 45.0
LV1.101_SGen_6 45.0
LV1.101_SGen_7 45.0
LV1.101_SGen_8 45.0
;
param c0:=
LV1.101_SGen_1 94.0
LV1.101_SGen_2 94.0
LV1.101_SGen_4 94.0
LV1.101_SGen_3 94.0
LV1.101_SGen_5 94.0
LV1.101_SGen_6 94.0
LV1.101_SGen_7 94.0
LV1.101_SGen_8 94.0
;
param QD:=
LV1.101_Load_1 0.024
LV1.101_Load_2 0.012
LV1.101_Load_3 0.02
LV1.101_Load_4 0.008
LV1.101_Load_5 0.016
LV1.101_Load_6 0.012
LV1.101_Load_7 0.031
LV1.101_Load_8 0.055
LV1.101_Load_9 0.012
LV1.101_Load_10 0.047
LV1.101_Load_11 0.008
LV1.101_Load_12 0.016
LV1.101_Load_13 0.055
LV1.101_Load_14 0.008
;
param G11:=
LV1.101_Line_1 75.34629173147552
LV1.101_Line_2 78.42673060852795
LV1.101_Line_3 84.3492165353798
LV1.101_Line_4 234.92063932895803
LV1.101_Line_5 261.15742529781943
LV1.101_Line_6 169.65989990760258
LV1.101_Line_7 817.2954622925891
LV1.101_Line_8 1957.1084781209045
LV1.101_Line_9 30.622118916311454
LV1.101_Line_10 31.712043465246346
LV1.101_Line_12 259.25601258093167
LV1.101_Line_13 91.31341199778501
LV1.101_Line_11 1626.9894125238334
;
param G12:=
LV1.101_Line_1 -75.34629173147552
LV1.101_Line_2 -78.42673060852795
LV1.101_Line_3 -84.3492165353798
LV1.101_Line_4 -234.92063932895803
LV1.101_Line_5 -261.15742529781943
LV1.101_Line_6 -169.65989990760258
LV1.101_Line_7 -817.2954622925891
LV1.101_Line_8 -1957.1084781209045
LV1.101_Line_9 -30.622118916311454
LV1.101_Line_10 -31.712043465246346
LV1.101_Line_12 -259.25601258093167
LV1.101_Line_13 -91.31341199778501
LV1.101_Line_11 -1626.9894125238334
;
param G21:=
LV1.101_Line_1 -75.34629173147552
LV1.101_Line_2 -78.42673060852795
LV1.101_Line_3 -84.3492165353798
LV1.101_Line_4 -234.92063932895803
LV1.101_Line_5 -261.15742529781943
LV1.101_Line_6 -169.65989990760258
LV1.101_Line_7 -817.2954622925891
LV1.101_Line_8 -1957.1084781209045
LV1.101_Line_9 -30.622118916311454
LV1.101_Line_10 -31.712043465246346
LV1.101_Line_12 -259.25601258093167
LV1.101_Line_13 -91.31341199778501
LV1.101_Line_11 -1626.9894125238334
;
param G22:=
LV1.101_Line_1 75.34629173147552
LV1.101_Line_2 78.42673060852795
LV1.101_Line_3 84.3492165353798
LV1.101_Line_4 234.92063932895803
LV1.101_Line_5 261.15742529781943
LV1.101_Line_6 169.65989990760258
LV1.101_Line_7 817.2954622925891
LV1.101_Line_8 1957.1084781209045
LV1.101_Line_9 30.622118916311454
LV1.101_Line_10 31.712043465246346
LV1.101_Line_12 259.25601258093167
LV1.101_Line_13 91.31341199778501
LV1.101_Line_11 1626.9894125238334
;
param B11:=
LV1.101_Line_1 -29.311451104235953
LV1.101_Line_2 -30.510017531904882
LV1.101_Line_3 -32.814394629969094
LV1.101_Line_4 -91.40015449396994
LV1.101_Line_5 -101.60861247262734
LV1.101_Line_6 -66.00788591238005
LV1.101_Line_7 -317.9960841595986
LV1.101_Line_8 -761.4853625117471
LV1.101_Line_9 -11.90974498993984
LV1.101_Line_10 -12.333823189568188
LV1.101_Line_12 -100.86879274610021
LV1.101_Line_13 -35.524089972130916
LV1.101_Line_11 -633.0444997791329
;
param B12:=
LV1.101_Line_1 29.316451104235952
LV1.101_Line_2 30.51501753190488
LV1.101_Line_3 32.819394629969096
LV1.101_Line_4 91.40515449396993
LV1.101_Line_5 101.61361247262734
LV1.101_Line_6 66.01288591238004
LV1.101_Line_7 318.0010841595986
LV1.101_Line_8 761.4903625117471
LV1.101_Line_9 11.914744989939841
LV1.101_Line_10 12.338823189568188
LV1.101_Line_12 100.87379274610021
LV1.101_Line_13 35.52908997213092
LV1.101_Line_11 633.0444997791329
;
param B21:=
LV1.101_Line_1 29.316451104235952
LV1.101_Line_2 30.51501753190488
LV1.101_Line_3 32.819394629969096
LV1.101_Line_4 91.40515449396993
LV1.101_Line_5 101.61361247262734
LV1.101_Line_6 66.01288591238004
LV1.101_Line_7 318.0010841595986
LV1.101_Line_8 761.4903625117471
LV1.101_Line_9 11.914744989939841
LV1.101_Line_10 12.338823189568188
LV1.101_Line_12 100.87379274610021
LV1.101_Line_13 35.52908997213092
LV1.101_Line_11 633.0444997791329
;
param B22:=
LV1.101_Line_1 -29.311451104235953
LV1.101_Line_2 -30.510017531904882
LV1.101_Line_3 -32.814394629969094
LV1.101_Line_4 -91.40015449396994
LV1.101_Line_5 -101.60861247262734
LV1.101_Line_6 -66.00788591238005
LV1.101_Line_7 -317.9960841595986
LV1.101_Line_8 -761.4853625117471
LV1.101_Line_9 -11.90974498993984
LV1.101_Line_10 -12.333823189568188
LV1.101_Line_12 -100.86879274610021
LV1.101_Line_13 -35.524089972130916
LV1.101_Line_11 -633.0444997791329
;
param G11T:=
MV1.101-LV1.101-Trafo_1 5.206164098292378
;
param G12T:=
MV1.101-LV1.101-Trafo_1 -5.10204081632653
;
param G21T:=
MV1.101-LV1.101-Trafo_1 -5.10204081632653
;
param G22T:=
MV1.101-LV1.101-Trafo_1 4.999999999999999
;
param B11T:=
MV1.101-LV1.101-Trafo_1 -5.206164098292378
;
param B12T:=
MV1.101-LV1.101-Trafo_1 5.10204081632653
;
param B21T:=
MV1.101-LV1.101-Trafo_1 5.10204081632653
;
param B22T:=
MV1.101-LV1.101-Trafo_1 -4.999999999999999
;
param QGmin:=
LV1.101_SGen_1 -0.2
LV1.101_SGen_2 -0.2
LV1.101_SGen_4 -0.2
LV1.101_SGen_3 -0.2
LV1.101_SGen_5 -0.2
LV1.101_SGen_6 -0.2
LV1.101_SGen_7 -0.2
LV1.101_SGen_8 -0.2
;
param QGmax:=
LV1.101_SGen_1 0.2
LV1.101_SGen_2 0.2
LV1.101_SGen_4 0.2
LV1.101_SGen_3 0.2
LV1.101_SGen_5 0.2
LV1.101_SGen_6 0.2
LV1.101_SGen_7 0.2
LV1.101_SGen_8 0.2
;
param Vmin:=
0 0.965
1 0.9
2 0.9
3 0.9
4 0.9
5 0.9
6 0.9
7 0.9
8 0.9
9 0.9
10 0.9
11 0.9
12 0.9
13 0.9
14 0.9
;
param Vmax:=
0 1.055
1 1.1
2 1.1
3 1.1
4 1.1
5 1.1
6 1.1
7 1.1
8 1.1
9 1.1
10 1.1
11 1.1
12 1.1
13 1.1
14 1.1
;
set T:= 
0
1
2
3
4
5
6
7
8
9
10
11
12
13
14
15
16
17
18
19
20
21
22
23
;
set TRed:= 
1
2
3
4
5
6
7
8
9
10
11
12
13
14
15
16
17
18
19
20
21
22
23
;
set Tstart:= 
0
;
param Tend:= 
23
;
param PD:=
LV1.101_Load_1 0 0.01926318
LV1.101_Load_1 1 0.01905264
LV1.101_Load_1 2 0.02505264
LV1.101_Load_1 3 0.02242104
LV1.101_Load_1 4 0.02463156
LV1.101_Load_1 5 0.019157880000000002
LV1.101_Load_1 6 0.0188421
LV1.101_Load_1 7 0.02142318
LV1.101_Load_1 8 0.0214737
LV1.101_Load_1 9 0.02037054
LV1.101_Load_1 10 0.02121264
LV1.101_Load_1 11 0.020475780000000002
LV1.101_Load_1 12 0.01973892
LV1.101_Load_1 13 0.01573896
LV1.101_Load_1 14 0.0136842
LV1.101_Load_1 15 0.01268634
LV1.101_Load_1 16 0.01052634
LV1.101_Load_1 17 0.01178946
LV1.101_Load_1 18 0.009949500000000002
LV1.101_Load_1 19 0.010736820000000001
LV1.101_Load_1 20 0.0103158
LV1.101_Load_1 21 0.01094736
LV1.101_Load_1 22 0.01173894
LV1.101_Load_1 23 0.01063158
LV1.101_Load_2 0 0.00711246
LV1.101_Load_2 1 0.00200607
LV1.101_Load_2 2 0.0019149
LV1.101_Load_2 3 0.0019605
LV1.101_Load_2 4 0.00227964
LV1.101_Load_2 5 0.00223404
LV1.101_Load_2 6 0.0018693000000000002
LV1.101_Load_2 7 0.0019149
LV1.101_Load_2 8 0.0015957299999999998
LV1.101_Load_2 9 0.00145896
LV1.101_Load_2 10 0.00123099
LV1.101_Load_2 11 0.00223404
LV1.101_Load_2 12 0.0019149
LV1.101_Load_2 13 0.0018237000000000001
LV1.101_Load_2 14 0.00200607
LV1.101_Load_2 15 0.0018237000000000001
LV1.101_Load_2 16 0.00209727
LV1.101_Load_2 17 0.00227964
LV1.101_Load_2 18 0.0023708099999999997
LV1.101_Load_2 19 0.0023708099999999997
LV1.101_Load_2 20 0.00346506
LV1.101_Load_2 21 0.004057740000000001
LV1.101_Load_2 22 0.0018693000000000002
LV1.101_Load_2 23 0.0026899800000000002
LV1.101_Load_3 0 0.00721155
LV1.101_Load_3 1 0.020831400000000003
LV1.101_Load_3 2 0.020919300000000002
LV1.101_Load_3 3 0.02403845
LV1.101_Load_3 4 0.02273685
LV1.101_Load_3 5 0.02090175
LV1.101_Load_3 6 0.02011025
LV1.101_Load_3 7 0.0195415
LV1.101_Load_3 8 0.01691485
LV1.101_Load_3 9 0.014176850000000001
LV1.101_Load_3 10 0.01281075
LV1.101_Load_3 11 0.01286935
LV1.101_Load_3 12 0.01245895
LV1.101_Load_3 13 0.0112453
LV1.101_Load_3 14 0.009750250000000002
LV1.101_Load_3 15 0.00919325
LV1.101_Load_3 16 0.0092929
LV1.101_Load_3 17 0.00917565
LV1.101_Load_3 18 0.008049950000000002
LV1.101_Load_3 19 0.010102
LV1.101_Load_3 20 0.010524150000000001
LV1.101_Load_3 21 0.00960365
LV1.101_Load_3 22 0.01014305
LV1.101_Load_3 23 0.011139749999999999
LV1.101_Load_4 0 0.0013165199999999998
LV1.101_Load_4 1 0.0038095200000000003
LV1.101_Load_4 2 0.00336134
LV1.101_Load_4 3 0.0022689
LV1.101_Load_4 4 0.00268908
LV1.101_Load_4 5 0.00282914
LV1.101_Load_4 6 0.0020168
LV1.101_Load_4 7 0.0018487400000000002
LV1.101_Load_4 8 0.0017647
LV1.101_Load_4 9 0.0017647
LV1.101_Load_4 10 0.0017647
LV1.101_Load_4 11 0.0014846
LV1.101_Load_4 12 0.00170868
LV1.101_Load_4 13 0.00156862
LV1.101_Load_4 14 0.0014005600000000001
LV1.101_Load_4 15 0.00142858
LV1.101_Load_4 16 0.0014005600000000001
LV1.101_Load_4 17 0.0013725399999999998
LV1.101_Load_4 18 0.0012605
LV1.101_Load_4 19 0.00117648
LV1.101_Load_4 20 0.0010084
LV1.101_Load_4 21 0.00112044
LV1.101_Load_4 22 0.00120448
LV1.101_Load_4 23 0.0012325
LV1.101_Load_5 0 0.012842119999999999
LV1.101_Load_5 1 0.01270176
LV1.101_Load_5 2 0.01670176
LV1.101_Load_5 3 0.01494736
LV1.101_Load_5 4 0.01642104
LV1.101_Load_5 5 0.01277192
LV1.101_Load_5 6 0.0125614
LV1.101_Load_5 7 0.01428212
LV1.101_Load_5 8 0.0143158
LV1.101_Load_5 9 0.01358036
LV1.101_Load_5 10 0.014141760000000001
LV1.101_Load_5 11 0.01365052
LV1.101_Load_5 12 0.01315928
LV1.101_Load_5 13 0.01049264
LV1.101_Load_5 14 0.0091228
LV1.101_Load_5 15 0.00845756
LV1.101_Load_5 16 0.007017560000000002
LV1.101_Load_5 17 0.00785964
LV1.101_Load_5 18 0.006633
LV1.101_Load_5 19 0.00715788
LV1.101_Load_5 20 0.006877200000000001
LV1.101_Load_5 21 0.00729824
LV1.101_Load_5 22 0.00782596
LV1.101_Load_5 23 0.00708772
LV1.101_Load_6 0 0.00432693
LV1.101_Load_6 1 0.01249884
LV1.101_Load_6 2 0.01255158
LV1.101_Load_6 3 0.01442307
LV1.101_Load_6 4 0.01364211
LV1.101_Load_6 5 0.01254105
LV1.101_Load_6 6 0.01206615
LV1.101_Load_6 7 0.0117249
LV1.101_Load_6 8 0.01014891
LV1.101_Load_6 9 0.008506109999999999
LV1.101_Load_6 10 0.007686450000000001
LV1.101_Load_6 11 0.00772161
LV1.101_Load_6 12 0.00747537
LV1.101_Load_6 13 0.00674718
LV1.101_Load_6 14 0.005850150000000001
LV1.101_Load_6 15 0.0055159499999999995
LV1.101_Load_6 16 0.00557574
LV1.101_Load_6 17 0.0055053900000000015
LV1.101_Load_6 18 0.004829970000000001
LV1.101_Load_6 19 0.0060612
LV1.101_Load_6 20 0.006314490000000001
LV1.101_Load_6 21 0.00576219
LV1.101_Load_6 22 0.006085830000000001
LV1.101_Load_6 23 0.00668385
LV1.101_Load_7 0 0.01153848
LV1.101_Load_7 1 0.03333024
LV1.101_Load_7 2 0.03347088
LV1.101_Load_7 3 0.03846152
LV1.101_Load_7 4 0.03637896
LV1.101_Load_7 5 0.0334428
LV1.101_Load_7 6 0.0321764
LV1.101_Load_7 7 0.0312664
LV1.101_Load_7 8 0.02706376000000001
LV1.101_Load_7 9 0.02268296
LV1.101_Load_7 10 0.020497200000000004
LV1.101_Load_7 11 0.02059096
LV1.101_Load_7 12 0.019934320000000002
LV1.101_Load_7 13 0.017992479999999998
LV1.101_Load_7 14 0.0156004
LV1.101_Load_7 15 0.0147092
LV1.101_Load_7 16 0.014868639999999999
LV1.101_Load_7 17 0.014681040000000001
LV1.101_Load_7 18 0.01287992
LV1.101_Load_7 19 0.0161632
LV1.101_Load_7 20 0.016838640000000002
LV1.101_Load_7 21 0.015365839999999999
LV1.101_Load_7 22 0.01622888
LV1.101_Load_7 23 0.0178236
LV1.101_Load_8 0 0.044626367
LV1.101_Load_8 1 0.044138616
LV1.101_Load_8 2 0.058038615999999994
LV1.101_Load_8 3 0.05194207599999998
LV1.101_Load_8 4 0.057063114
LV1.101_Load_8 5 0.044382422000000005
LV1.101_Load_8 6 0.043650865
LV1.101_Load_8 7 0.04963036699999999
LV1.101_Load_8 8 0.049747405
LV1.101_Load_8 9 0.04719175099999999
LV1.101_Load_8 10 0.049142616
LV1.101_Load_8 11 0.047435556999999996
LV1.101_Load_8 12 0.045728498
LV1.101_Load_8 13 0.03646192399999999
LV1.101_Load_8 14 0.031701730000000004
LV1.101_Load_8 15 0.029390021000000002
LV1.101_Load_8 16 0.024386021
LV1.101_Load_8 17 0.027312249
LV1.101_Load_8 18 0.023049675000000002
LV1.101_Load_8 19 0.024873633000000003
LV1.101_Load_8 20 0.02389827
LV1.101_Load_8 21 0.025361384
LV1.101_Load_8 22 0.027195211
LV1.101_Load_8 23 0.024629827
LV1.101_Load_9 0 0.00963159
LV1.101_Load_9 1 0.00952632
LV1.101_Load_9 2 0.01252632
LV1.101_Load_9 3 0.01121052
LV1.101_Load_9 4 0.01231578
LV1.101_Load_9 5 0.009578940000000001
LV1.101_Load_9 6 0.00942105
LV1.101_Load_9 7 0.01071159
LV1.101_Load_9 8 0.01073685
LV1.101_Load_9 9 0.01018527
LV1.101_Load_9 10 0.01060632
LV1.101_Load_9 11 0.010237890000000001
LV1.101_Load_9 12 0.009869460000000002
LV1.101_Load_9 13 0.00786948
LV1.101_Load_9 14 0.0068421
LV1.101_Load_9 15 0.00634317
LV1.101_Load_9 16 0.00526317
LV1.101_Load_9 17 0.00589473
LV1.101_Load_9 18 0.004974750000000001
LV1.101_Load_9 19 0.0053684100000000005
LV1.101_Load_9 20 0.0051579
LV1.101_Load_9 21 0.00547368
LV1.101_Load_9 22 0.00586947
LV1.101_Load_9 23 0.00531579
LV1.101_Load_10 0 0.01730772
LV1.101_Load_10 1 0.04999536
LV1.101_Load_10 2 0.05020632
LV1.101_Load_10 3 0.05769228
LV1.101_Load_10 4 0.054568439999999996
LV1.101_Load_10 5 0.0501642
LV1.101_Load_10 6 0.04826459999999999
LV1.101_Load_10 7 0.0468996
LV1.101_Load_10 8 0.04059564
LV1.101_Load_10 9 0.03402444
LV1.101_Load_10 10 0.03074580000000001
LV1.101_Load_10 11 0.03088644
LV1.101_Load_10 12 0.02990148
LV1.101_Load_10 13 0.02698872
LV1.101_Load_10 14 0.023400599999999997
LV1.101_Load_10 15 0.022063799999999998
LV1.101_Load_10 16 0.02230296
LV1.101_Load_10 17 0.02202156
LV1.101_Load_10 18 0.01931988
LV1.101_Load_10 19 0.0242448
LV1.101_Load_10 20 0.025257960000000003
LV1.101_Load_10 21 0.02304876
LV1.101_Load_10 22 0.024343319999999998
LV1.101_Load_10 23 0.0267354
LV1.101_Load_11 0 0.0055337
LV1.101_Load_11 1 0.00132022
LV1.101_Load_11 2 0.00412922
LV1.101_Load_11 3 0.00255618
LV1.101_Load_11 4 0.00216292
LV1.101_Load_11 5 0.00207866
LV1.101_Load_11 6 0.00235956
LV1.101_Load_11 7 0.00188202
LV1.101_Load_11 8 0.0016853999999999999
LV1.101_Load_11 9 0.00157304
LV1.101_Load_11 10 0.0016572999999999998
LV1.101_Load_11 11 0.00087078
LV1.101_Load_11 12 0.00078652
LV1.101_Load_11 13 0.00064606
LV1.101_Load_11 14 0.00044943999999999995
LV1.101_Load_11 15 0.00050562
LV1.101_Load_11 16 0.0008427000000000002
LV1.101_Load_11 17 0.0017696600000000002
LV1.101_Load_11 18 0.0021348400000000003
LV1.101_Load_11 19 0.0005337
LV1.101_Load_11 20 0.00042134
LV1.101_Load_11 21 0.00039326
LV1.101_Load_11 22 0.0004775200000000001
LV1.101_Load_11 23 0.00061798
LV1.101_Load_12 0 0.00576924
LV1.101_Load_12 1 0.01666512
LV1.101_Load_12 2 0.01673544
LV1.101_Load_12 3 0.01923076
LV1.101_Load_12 4 0.01818948
LV1.101_Load_12 5 0.0167214
LV1.101_Load_12 6 0.0160882
LV1.101_Load_12 7 0.0156332
LV1.101_Load_12 8 0.013531880000000001
LV1.101_Load_12 9 0.01134148
LV1.101_Load_12 10 0.010248600000000002
LV1.101_Load_12 11 0.01029548
LV1.101_Load_12 12 0.009967160000000001
LV1.101_Load_12 13 0.008996239999999999
LV1.101_Load_12 14 0.0078002
LV1.101_Load_12 15 0.007354600000000001
LV1.101_Load_12 16 0.0074343199999999995
LV1.101_Load_12 17 0.0073405200000000006
LV1.101_Load_12 18 0.00643996
LV1.101_Load_12 19 0.0080816
LV1.101_Load_12 20 0.008419320000000001
LV1.101_Load_12 21 0.007682919999999999
LV1.101_Load_12 22 0.00811444
LV1.101_Load_12 23 0.0089118
LV1.101_Load_13 0 0.044626367
LV1.101_Load_13 1 0.044138616
LV1.101_Load_13 2 0.058038615999999994
LV1.101_Load_13 3 0.05194207599999998
LV1.101_Load_13 4 0.057063114
LV1.101_Load_13 5 0.044382422000000005
LV1.101_Load_13 6 0.043650865
LV1.101_Load_13 7 0.04963036699999999
LV1.101_Load_13 8 0.049747405
LV1.101_Load_13 9 0.04719175099999999
LV1.101_Load_13 10 0.049142616
LV1.101_Load_13 11 0.047435556999999996
LV1.101_Load_13 12 0.045728498
LV1.101_Load_13 13 0.03646192399999999
LV1.101_Load_13 14 0.031701730000000004
LV1.101_Load_13 15 0.029390021000000002
LV1.101_Load_13 16 0.024386021
LV1.101_Load_13 17 0.027312249
LV1.101_Load_13 18 0.023049675000000002
LV1.101_Load_13 19 0.024873633000000003
LV1.101_Load_13 20 0.02389827
LV1.101_Load_13 21 0.025361384
LV1.101_Load_13 22 0.027195211
LV1.101_Load_13 23 0.024629827
LV1.101_Load_14 0 0.0
LV1.101_Load_14 1 0.0
LV1.101_Load_14 2 0.0
LV1.101_Load_14 3 0.0
LV1.101_Load_14 4 0.0
LV1.101_Load_14 5 0.0
LV1.101_Load_14 6 0.0
LV1.101_Load_14 7 0.00177742
LV1.101_Load_14 8 0.0035548600000000004
LV1.101_Load_14 9 0.010611919999999999
LV1.101_Load_14 10 0.017669
LV1.101_Load_14 11 0.012460659999999998
LV1.101_Load_14 12 0.00725234
LV1.101_Load_14 13 0.00362616
LV1.101_Load_14 14 0.0
LV1.101_Load_14 15 0.0
LV1.101_Load_14 16 0.0
LV1.101_Load_14 17 0.0
LV1.101_Load_14 18 0.0
LV1.101_Load_14 19 0.0088345
LV1.101_Load_14 20 0.017669
LV1.101_Load_14 21 0.01735254
LV1.101_Load_14 22 0.01703608
LV1.101_Load_14 23 0.00851804
;
set BATTERY:=
LV1.101_Load_1_bat
LV1.101_Load_2_bat
LV1.101_Load_3_bat
LV1.101_Load_4_bat
LV1.101_Load_5_bat
LV1.101_Load_6_bat
LV1.101_Load_7_bat
LV1.101_Load_8_bat
LV1.101_Load_9_bat
LV1.101_Load_10_bat
LV1.101_Load_11_bat
LV1.101_Load_12_bat
LV1.101_Load_13_bat
LV1.101_Load_14_bat
;
set Bbs:=
0 LV1.101_Load_1_bat
1 LV1.101_Load_2_bat
2 LV1.101_Load_3_bat
3 LV1.101_Load_4_bat
4 LV1.101_Load_5_bat
5 LV1.101_Load_6_bat
6 LV1.101_Load_7_bat
7 LV1.101_Load_8_bat
8 LV1.101_Load_9_bat
9 LV1.101_Load_10_bat
10 LV1.101_Load_11_bat
11 LV1.101_Load_12_bat
12 LV1.101_Load_13_bat
13 LV1.101_Load_14_bat
;
param PCmax:=
LV1.101_Load_1_bat 0.0
LV1.101_Load_2_bat 0.0
LV1.101_Load_3_bat 0.0
LV1.101_Load_4_bat 0.0
LV1.101_Load_5_bat 0.0
LV1.101_Load_6_bat 0.0
LV1.101_Load_7_bat 0.0
LV1.101_Load_8_bat 0.0
LV1.101_Load_9_bat 0.0
LV1.101_Load_10_bat 0.0
LV1.101_Load_11_bat 0.0
LV1.101_Load_12_bat 0.0
LV1.101_Load_13_bat 0.0
LV1.101_Load_14_bat 0.0
;
param PCmin:=
LV1.101_Load_1_bat 0.0
LV1.101_Load_2_bat 0.0
LV1.101_Load_3_bat 0.0
LV1.101_Load_4_bat 0.0
LV1.101_Load_5_bat 0.0
LV1.101_Load_6_bat 0.0
LV1.101_Load_7_bat 0.0
LV1.101_Load_8_bat 0.0
LV1.101_Load_9_bat 0.0
LV1.101_Load_10_bat 0.0
LV1.101_Load_11_bat 0.0
LV1.101_Load_12_bat 0.0
LV1.101_Load_13_bat 0.0
LV1.101_Load_14_bat 0.0
;
param PDmax:=
LV1.101_Load_1_bat 0.0
LV1.101_Load_2_bat 0.0
LV1.101_Load_3_bat 0.0
LV1.101_Load_4_bat 0.0
LV1.101_Load_5_bat 0.0
LV1.101_Load_6_bat 0.0
LV1.101_Load_7_bat 0.0
LV1.101_Load_8_bat 0.0
LV1.101_Load_9_bat 0.0
LV1.101_Load_10_bat 0.0
LV1.101_Load_11_bat 0.0
LV1.101_Load_12_bat 0.0
LV1.101_Load_13_bat 0.0
LV1.101_Load_14_bat 0.0
;
param PDmin:=
LV1.101_Load_1_bat 0.0
LV1.101_Load_2_bat 0.0
LV1.101_Load_3_bat 0.0
LV1.101_Load_4_bat 0.0
LV1.101_Load_5_bat 0.0
LV1.101_Load_6_bat 0.0
LV1.101_Load_7_bat 0.0
LV1.101_Load_8_bat 0.0
LV1.101_Load_9_bat 0.0
LV1.101_Load_10_bat 0.0
LV1.101_Load_11_bat 0.0
LV1.101_Load_12_bat 0.0
LV1.101_Load_13_bat 0.0
LV1.101_Load_14_bat 0.0
;
param nchar:=
LV1.101_Load_1_bat 0.8
LV1.101_Load_2_bat 0.8
LV1.101_Load_3_bat 0.8
LV1.101_Load_4_bat 0.8
LV1.101_Load_5_bat 0.8
LV1.101_Load_6_bat 0.8
LV1.101_Load_7_bat 0.8
LV1.101_Load_8_bat 0.8
LV1.101_Load_9_bat 0.8
LV1.101_Load_10_bat 0.8
LV1.101_Load_11_bat 0.8
LV1.101_Load_12_bat 0.8
LV1.101_Load_13_bat 0.8
LV1.101_Load_14_bat 0.8
;
param ndis:=
LV1.101_Load_1_bat 0.9
LV1.101_Load_2_bat 0.9
LV1.101_Load_3_bat 0.9
LV1.101_Load_4_bat 0.9
LV1.101_Load_5_bat 0.9
LV1.101_Load_6_bat 0.9
LV1.101_Load_7_bat 0.9
LV1.101_Load_8_bat 0.9
LV1.101_Load_9_bat 0.9
LV1.101_Load_10_bat 0.9
LV1.101_Load_11_bat 0.9
LV1.101_Load_12_bat 0.9
LV1.101_Load_13_bat 0.9
LV1.101_Load_14_bat 0.9
;
param EMAX:=
LV1.101_Load_1_bat 0.0
LV1.101_Load_2_bat 0.0
LV1.101_Load_3_bat 0.0
LV1.101_Load_4_bat 0.0
LV1.101_Load_5_bat 0.0
LV1.101_Load_6_bat 0.0
LV1.101_Load_7_bat 0.0
LV1.101_Load_8_bat 0.0
LV1.101_Load_9_bat 0.0
LV1.101_Load_10_bat 0.0
LV1.101_Load_11_bat 0.0
LV1.101_Load_12_bat 0.0
LV1.101_Load_13_bat 0.0
LV1.101_Load_14_bat 0.0
;
param EMIN:=
LV1.101_Load_1_bat 0.0
LV1.101_Load_2_bat 0.0
LV1.101_Load_3_bat 0.0
LV1.101_Load_4_bat 0.0
LV1.101_Load_5_bat 0.0
LV1.101_Load_6_bat 0.0
LV1.101_Load_7_bat 0.0
LV1.101_Load_8_bat 0.0
LV1.101_Load_9_bat 0.0
LV1.101_Load_10_bat 0.0
LV1.101_Load_11_bat 0.0
LV1.101_Load_12_bat 0.0
LV1.101_Load_13_bat 0.0
LV1.101_Load_14_bat 0.0
;
param E0:=
LV1.101_Load_1_bat 0.0
LV1.101_Load_2_bat 0.0
LV1.101_Load_3_bat 0.0
LV1.101_Load_4_bat 0.0
LV1.101_Load_5_bat 0.0
LV1.101_Load_6_bat 0.0
LV1.101_Load_7_bat 0.0
LV1.101_Load_8_bat 0.0
LV1.101_Load_9_bat 0.0
LV1.101_Load_10_bat 0.0
LV1.101_Load_11_bat 0.0
LV1.101_Load_12_bat 0.0
LV1.101_Load_13_bat 0.0
LV1.101_Load_14_bat 0.0
;
param c3:=
LV1.101_Load_1_bat 1.0
LV1.101_Load_2_bat 1.0
LV1.101_Load_3_bat 1.0
LV1.101_Load_4_bat 1.0
LV1.101_Load_5_bat 1.0
LV1.101_Load_6_bat 1.0
LV1.101_Load_7_bat 1.0
LV1.101_Load_8_bat 1.0
LV1.101_Load_9_bat 1.0
LV1.101_Load_10_bat 1.0
LV1.101_Load_11_bat 1.0
LV1.101_Load_12_bat 1.0
LV1.101_Load_13_bat 1.0
LV1.101_Load_14_bat 1.0
;
set S:=
1
2
;
set Sbs:=
1 1
2 2
;
param PS:=
1 0 0.0
1 1 0.0
1 2 0.0
1 3 0.0
1 4 0.0
1 5 0.02
1 6 0.02
1 7 0.04
1 8 0.04
1 9 0.06
1 10 0.06
1 11 0.06
1 12 0.06
1 13 0.08
1 14 0.08
1 15 0.08
1 16 0.07
1 17 0.05
1 18 0.05
1 19 0.0
1 20 0.0
1 21 0.0
1 22 0.0
1 23 0.0
2 0 0.0
2 1 0.0
2 2 0.0
2 3 0.0
2 4 0.0
2 5 0.01
2 6 0.01
2 7 0.04
2 8 0.04
2 9 0.05
2 10 0.05
2 11 0.05
2 12 0.05
2 13 0.05
2 14 0.05
2 15 0.04
2 16 0.03
2 17 0.02
2 18 0.0
2 19 0.0
2 20 0.0
2 21 0.0
2 22 0.0
2 23 0.0
;
param QS:=
1 0 0.0
1 1 0.0
1 2 0.0
1 3 0.0
1 4 0.0
1 5 0.0
1 6 0.0
1 7 0.0
1 8 0.0
1 9 0.0
1 10 0.0
1 11 0.0
1 12 0.0
1 13 0.0
1 14 0.0
1 15 0.0
1 16 0.0
1 17 0.0
1 18 0.0
1 19 0.0
1 20 0.0
1 21 0.0
1 22 0.0
1 23 0.0
2 0 0.0
2 1 0.0
2 2 0.0
2 3 0.0
2 4 0.0
2 5 0.0
2 6 0.0
2 7 0.0
2 8 0.0
2 9 0.0
2 10 0.0
2 11 0.0
2 12 0.0
2 13 0.0
2 14 0.0
2 15 0.0
2 16 0.0
2 17 0.0
2 18 0.0
2 19 0.0
2 20 0.0
2 21 0.0
2 22 0.0
2 23 0.0
;
param c4:=
1 11
1 11
1 11
1 11
1 11
1 11
1 11
1 11
1 11
1 11
1 11
1 11
1 11
1 11
1 11
1 11
1 11
1 11
1 11
1 11
1 11
1 11
1 11
1 11
2 12
2 12
2 12
2 12
2 12
2 12
2 12
2 12
2 12
2 12
2 12
2 12
2 12
2 12
2 12
2 12
2 12
2 12
2 12
2 12
2 12
2 12
2 12
2 12
;
